p cnf 18 24
11 15 14 -13 -1 -3 5 -17 7 9 4 -12 2 16 6 0
-11 -7 -10 0
1 2 14 0
-18 16 -1 0
18 -6 -11 7 1 -14 -9 4 8 10 15 12 13 -17 -5 0
10 2 0
11 -10 8 -7 14 -1 -6 2 9 -17 5 -3 0
-1 16 -10 -12 8 0
15 -1 -9 -14 -2 10 16 -12 -3 17 -11 4 8 -6 -18 0
3 16 -11 2 -4 8 18 -14 -6 1 13 9 -10 17 -5 0
15 8 -14 0
-13 17 0
6 11 -1 -14 -17 -9 -2 -12 13 -18 3 10 5 4 -15 0
-12 -4 -1 0
11 18 7 0
-16 -5 -11 0
6 -18 -13 7 9 -8 4 -2 0
-17 9 15 0
6 -5 11 14 17 -16 -15 18 3 9 -2 4 7 8 0
-2 17 -15 -13 0
-2 -16 -7 15 -11 -17 5 3 -9 -8 10 -18 0
-5 -13 8 0
10 -4 -16 9 0
-12 -6 13 0
